computational_data/solutions/ER_n30_p020_s1.sol
Optimal - objective value 11.00000000
      4 r_4                         1                       1
      6 r_6                         1                       1
     10 r_10                        1                       1
     11 r_11                        1                       1
     12 r_12                        1                       1
     13 r_13                        1                       1
     38 b_8                         1                       1
     48 b_18                        1                       1
     50 b_20                        1                       1
     51 b_21                        1                       1
     54 b_24                        1                       1
